id: 1351
name: uc-case3
group: miplib2010
method: 1

Gurobi 7.0.2 (linux64, Matlab) logging started Sat Apr 21 02:09:01 2018


Gurobi 7.0.2 (linux64) logging started Sat Apr 21 02:09:01 2018

Optimize a model with 52003 rows, 37749 columns and 273618 nonzeros
Coefficient statistics:
  Matrix range     [4e-02, 4e+02]
  Objective range  [1e-02, 1e+01]
  Bounds range     [7e-01, 1e+04]
  RHS range        [1e+00, 2e+03]
Presolve removed 19672 rows and 12973 columns
Presolve time: 0.09s
Presolved: 32331 rows, 25251 columns, 230693 nonzeros

Iteration    Objective       Primal Inf.    Dual Inf.      Time
       0    2.7512880e+02   7.938762e+05   0.000000e+00      0s
   14141    7.1812642e+03   0.000000e+00   0.000000e+00      1s

Solved in 14141 iterations and 0.84 seconds
Optimal objective  7.181264177e+03
status: OPTIMAL
